p cnf 7230 16
-604 -1948 -2112 0
604 -2113 0
2116 2117 0
1562 -2117 0
-1562 -2116 0
2114 2115 0
1560 -2115 0
-1560 -2114 0
2112 2113 0
-1558 2111 0
2110 -2111 0
1558 -2110 0
1948 -2113 0
-2108 2109 0
1946 -2119 0
606 -2119 0
